param set_len = 22;
param target_sum = 10717762;
param values := [0] 1562423 [1] 984868 [2] 719868 [3] 2055539 [4] 1397487 [5] 808996 [6] 1747420 [7] 973763 [8] 810486 [9] 1971727 [10] 1789442 [11] 747293 [12] 1525942 [13] 108818 [14] 1017258 [15] 1572240 [16] 306635 [17] 1309278 [18] 262458 [19] 875954 [20] 1473568 [21] 68922 ;
